true true true
presolving:
presolving (0 rounds: 0 fast, 0 medium, 0 exhaustive):
 0 deleted vars, 0 deleted constraints, 0 added constraints, 0 tightened bounds, 0 added holes, 0 changed sides, 0 changed coefficients
 0 implications, 0 cliques
presolved problem has 111 variables (111 bin, 0 int, 0 impl, 0 cont) and 100 constraints
    100 constraints of type <linear>
transformed objective value is always integral (scale: 1)
Presolving Time: 0.00

 time | node  | left  |LP iter|LP it/n|mem/heur|mdpt |vars |cons |rows |cuts |sepa|confs|strbr|  dualbound   | primalbound  |  gap   | compl. 
p 0.0s|     1 |     0 |     0 |     - |shiftand|   0 | 111 | 100 | 100 |   0 |  0 |   0 |   0 |      --      | 1.100000e+01 |    Inf | unknown
 time | node  | left  |LP iter|LP it/n|mem/heur|mdpt |vars |cons |rows |cuts |sepa|confs|strbr|  dualbound   | primalbound  |  gap   | compl. 
  0.2s|     1 |     0 |    49 |     - |  6992k |   0 |2045 | 100 | 100 |   0 |  0 |   0 |   0 | 1.000000e+00 | 1.100000e+01 |1000.00%| unknown
 time | node  | left  |LP iter|LP it/n|mem/heur|mdpt |vars |cons |rows |cuts |sepa|confs|strbr|  dualbound   | primalbound  |  gap   | compl. 
 6977s|     1 |     0 |  5938 |     - |    39M |   0 |  12k| 100 | 100 |   0 |  0 |   0 |   0 | 9.000000e+00 | 1.100000e+01 |  22.22%| unknown
 time | node  | left  |LP iter|LP it/n|mem/heur|mdpt |vars |cons |rows |cuts |sepa|confs|strbr|  dualbound   | primalbound  |  gap   | compl. 
 6981s|     1 |     2 | 10270 |     - |    43M |   0 |  12k| 100 | 100 |   0 |  1 |   0 |   0 | 9.000000e+00 | 1.100000e+01 |  22.22%| unknown
 time | node  | left  |LP iter|LP it/n|mem/heur|mdpt |vars |cons |rows |cuts |sepa|confs|strbr|  dualbound   | primalbound  |  gap   | compl. 
 6981s|     2 |     3 | 10414 | 144.0 |    43M |   1 |  12k| 100 | 100 |   0 |  1 |   0 |   0 | 9.000000e+00 | 1.100000e+01 |  22.22%| unknown
 time | node  | left  |LP iter|LP it/n|mem/heur|mdpt |vars |cons |rows |cuts |sepa|confs|strbr|  dualbound   | primalbound  |  gap   | compl. 
 6982s|     3 |     4 | 10460 |  95.0 |    44M |   1 |  12k| 100 | 100 |   0 |  1 |   0 |   0 | 9.000000e+00 | 1.100000e+01 |  22.22%| unknown
 time | node  | left  |LP iter|LP it/n|mem/heur|mdpt |vars |cons |rows |cuts |sepa|confs|strbr|  dualbound   | primalbound  |  gap   | compl. 
 6983s|     4 |     5 | 10606 | 112.0 |    44M |   2 |  12k| 100 | 100 |   0 |  1 |   0 |   0 | 9.000000e+00 | 1.100000e+01 |  22.22%| unknown
 time | node  | left  |LP iter|LP it/n|mem/heur|mdpt |vars |cons |rows |cuts |sepa|confs|strbr|  dualbound   | primalbound  |  gap   | compl. 
 6984s|     5 |     6 | 10695 | 106.2 |    44M |   3 |  12k| 100 | 100 |   0 |  1 |   0 |   0 | 9.000000e+00 | 1.100000e+01 |  22.22%| unknown
 time | node  | left  |LP iter|LP it/n|mem/heur|mdpt |vars |cons |rows |cuts |sepa|confs|strbr|  dualbound   | primalbound  |  gap   | compl. 
 6987s|     6 |     7 | 12206 | 387.2 |    46M |   3 |  12k| 100 | 100 |   0 |  1 |   0 |   0 | 9.000000e+00 | 1.100000e+01 |  22.22%| unknown
 time | node  | left  |LP iter|LP it/n|mem/heur|mdpt |vars |cons |rows |cuts |sepa|confs|strbr|  dualbound   | primalbound  |  gap   | compl. 
 6990s|     7 |     8 | 12303 | 338.8 |    46M |   4 |  12k| 100 | 100 |   0 |  1 |   0 |   0 | 9.000000e+00 | 1.100000e+01 |  22.22%| unknown
 time | node  | left  |LP iter|LP it/n|mem/heur|mdpt |vars |cons |rows |cuts |sepa|confs|strbr|  dualbound   | primalbound  |  gap   | compl. 
 6992s|     8 |     9 | 12313 | 291.9 |    46M |   5 |  12k| 100 | 100 |   0 |  1 |   0 |   0 | 9.000000e+00 | 1.100000e+01 |  22.22%| unknown
 time | node  | left  |LP iter|LP it/n|mem/heur|mdpt |vars |cons |rows |cuts |sepa|confs|strbr|  dualbound   | primalbound  |  gap   | compl. 
 6994s|     9 |    10 | 12453 | 272.9 |    46M |   6 |  12k| 100 | 100 |   0 |  1 |   0 |   0 | 9.000000e+00 | 1.100000e+01 |  22.22%| unknown
 time | node  | left  |LP iter|LP it/n|mem/heur|mdpt |vars |cons |rows |cuts |sepa|confs|strbr|  dualbound   | primalbound  |  gap   | compl. 
 6996s|    10 |    11 | 12458 | 243.1 |    46M |   7 |  12k| 100 | 100 |   0 |  1 |   0 |   0 | 9.000000e+00 | 1.100000e+01 |  22.22%| unknown
 time | node  | left  |LP iter|LP it/n|mem/heur|mdpt |vars |cons |rows |cuts |sepa|confs|strbr|  dualbound   | primalbound  |  gap   | compl. 
 6998s|    11 |    12 | 12765 | 249.5 |    46M |   8 |  12k| 100 | 100 |   0 |  1 |   0 |   0 | 9.000000e+00 | 1.100000e+01 |  22.22%| unknown
 time | node  | left  |LP iter|LP it/n|mem/heur|mdpt |vars |cons |rows |cuts |sepa|confs|strbr|  dualbound   | primalbound  |  gap   | compl. 
 7000s|    12 |    13 | 12788 | 228.9 |    46M |   9 |  12k| 100 | 100 |   0 |  1 |   0 |   0 | 9.000000e+00 | 1.100000e+01 |  22.22%| unknown
 time | node  | left  |LP iter|LP it/n|mem/heur|mdpt |vars |cons |rows |cuts |sepa|confs|strbr|  dualbound   | primalbound  |  gap   | compl. 
 7002s|    13 |    14 | 12929 | 221.6 |    46M |  10 |  12k| 100 | 100 |   0 |  1 |   0 |   0 | 9.000000e+00 | 1.100000e+01 |  22.22%| unknown
 time | node  | left  |LP iter|LP it/n|mem/heur|mdpt |vars |cons |rows |cuts |sepa|confs|strbr|  dualbound   | primalbound  |  gap   | compl. 
 7154s|    14 |    15 | 13883 | 277.9 |    52M |  11 |  13k| 100 | 100 |   0 |  1 |   0 |   0 | 9.000000e+00 | 1.100000e+01 |  22.22%| unknown

SCIP Status        : solving was interrupted [time limit reached]
Solving Time (sec) : 7268.29
Solving Nodes      : 15
Primal Bound       : +1.10000000000000e+01 (2 solutions)
Dual Bound         : +9.00000000000000e+00
Gap                : 22.22 %
Running with parallel: True bidir: True symbreak: True
Number of Nodes:  100
49.481700000000004% holds
starting cheapest insertion heuristic
Heuristic without TSP improvement:  12
Heuristic without TSP improvement time:  0.2
Heuristic Sol:  11
Heuristic total time:  0.8
[[22, 73, 14, 84, 45, 41, 77, 98, 56, 60, 38, 6], [37, 17, 58, 28, 67, 23, 2, 83, 31, 13, 19], [57, 81, 62, 51, 20, 86, 29, 32, 16, 26], [68, 11, 46, 21, 80, 40, 35], [74, 64, 36, 91, 97, 71, 92, 90, 89, 79, 10], [9, 76, 53, 0, 55], [27, 33, 72, 3, 82, 93, 94, 61, 44, 4], [43, 63, 87, 78, 25, 65, 47, 15, 39], [88, 54, 42, 12, 7, 34, 75, 1, 70, 85, 5, 8], [99, 66, 48, 96, 59, 24, 50], [95, 30, 69, 52, 49, 18]]
Instance path:  /home/htc/mghannam/SCRATCH/lccp-rust/data/t84_kroC100.npcc
Timelimit:  7200
Heuristic without TSP improvement:  12
Heuristic without TSP improvement time:  0.2
Heuristic Sol:  11
Heuristic total time:  2.4
at 1 zero_duals: 89
at1, LP obj: 11.0 n_added_paths: 1934
at 1 zero_duals: 72
at1, LP obj: 11.0 n_added_paths: 417
at 1 zero_duals: 52
at1, LP obj: 11.0 n_added_paths: 825
at 1 zero_duals: 47
at1, LP obj: 11.0 n_added_paths: 1278
at 1 zero_duals: 28
at1, LP obj: 10.645962732919253 n_added_paths: 1526
at 1 zero_duals: 17
at1, LP obj: 10.429090533011518 n_added_paths: 1284
at 1 zero_duals: 11
at1, LP obj: 9.96689373774417 n_added_paths: 1096
at 1 zero_duals: 13
at1, LP obj: 9.573955713462947 n_added_paths: 992
at 1 zero_duals: 12
at1, LP obj: 9.31985571450124 n_added_paths: 886
at 1 zero_duals: 8
at1, LP obj: 9.134706518138785 n_added_paths: 400
at 1 zero_duals: 6
at1, LP obj: 9.025541015942165 n_added_paths: 289
at 1 zero_duals: 7
at1, LP obj: 8.919923175760673 n_added_paths: 251
at 1 zero_duals: 6
at1, LP obj: 8.873445608538137 n_added_paths: 259
at 1 zero_duals: 7
at1, LP obj: 8.813165518139293 n_added_paths: 115
at 1 zero_duals: 4
at1, LP obj: 8.766998093317515 n_added_paths: 118
at 1 zero_duals: 3
Switching to elementary pricing
at1, LP obj: 8.74854907898057 n_added_paths: 239
updated lowerbound from 1.0 to 7
at 1 zero_duals: 2
at1, LP obj: 8.704676233795505 n_added_paths: 27
at 1 zero_duals: 4
at1, LP obj: 8.70151705678578 n_added_paths: 22
at 1 zero_duals: 2
Switching to elementary pricing
at1, LP obj: 8.696937108318055 n_added_paths: 118
updated lowerbound from 7.0 to 8
at 1 zero_duals: 6
at1, LP obj: 8.634595337173801 n_added_paths: 41
at 1 zero_duals: 3
Switching to elementary pricing
at1, LP obj: 8.633554267845408 n_added_paths: 72
updated lowerbound from 8.0 to 9
Gap too small = 0, stopping pricing with lb = 9
Gap too small = 0, stopping pricing with lb = 9
Gap too small = 0, stopping pricing with lb = 9
Gap too small = 0, stopping pricing with lb = 9
Gap too small = 0, stopping pricing with lb = 9
Gap too small = 0, stopping pricing with lb = 9
Gap too small = 0, stopping pricing with lb = 9
Gap too small = 0, stopping pricing with lb = 9
Gap too small = 0, stopping pricing with lb = 9
Gap too small = 0, stopping pricing with lb = 9
Gap too small = 0, stopping pricing with lb = 9
Gap too small = 0, stopping pricing with lb = 9
Gap too small = 0, stopping pricing with lb = 9
at 26 zero_duals: 16
Switching to elementary pricing
at26, LP obj: 9.190429525899033 n_added_paths: 1364
Gap too small = 0, stopping pricing with lb = 9
at 28 zero_duals: 99
at28, LP obj: 1e+20 n_added_paths: 29
at 28 zero_duals: 11
at28, LP obj: 9.875495585266517 n_added_paths: 656
at 28 zero_duals: 16
Switching to elementary pricing
at28, LP obj: 9.489713322091063 n_added_paths: 676
Best solution found:
t_[27, 33, 94, 72, 3, 93, 39, 0, 44, 61, 4, 27] 1.0 1.0
checking cycle [27, 33, 94, 72, 3, 93, 39, 0, 44, 61, 4, 27]
[27, 33, 94, 72, 3, 93, 39, 0, 44, 61, 4, 27] 2724 2630
t_[37, 17, 58, 28, 67, 23, 2, 83, 31, 13, 19, 37] 1.0 1.0
checking cycle [37, 17, 58, 28, 67, 23, 2, 83, 31, 13, 19, 37]
[37, 17, 58, 28, 67, 23, 2, 83, 31, 13, 19, 37] 3002 2662
t_[43, 82, 63, 87, 78, 6, 22, 73, 43] 1.0 1.0
checking cycle [43, 82, 63, 87, 78, 6, 22, 73, 43]
[43, 82, 63, 87, 78, 6, 22, 73, 43] 2876 2708
t_[47, 25, 8, 75, 34, 7, 54, 88, 65, 15, 47] 1.0 1.0
checking cycle [47, 25, 8, 75, 34, 7, 54, 88, 65, 15, 47]
[47, 25, 8, 75, 34, 7, 54, 88, 65, 15, 47] 2873 2689
t_[57, 81, 62, 51, 20, 86, 29, 32, 16, 26, 57] 1.0 1.0
checking cycle [57, 81, 62, 51, 20, 86, 29, 32, 16, 26, 57]
[57, 81, 62, 51, 20, 86, 29, 32, 16, 26, 57] 2943 2396
t_[46, 21, 80, 40, 35, 68, 11, 46] 1.0 1.0
checking cycle [46, 21, 80, 40, 35, 68, 11, 46]
[46, 21, 80, 40, 35, 68, 11, 46] 3081 2960
t_[85, 1, 59, 24, 96, 48, 66, 70, 5, 85] 1.0 1.0
checking cycle [85, 1, 59, 24, 96, 48, 66, 70, 5, 85]
[85, 1, 59, 24, 96, 48, 66, 70, 5, 85] 2646 2603
t_[99, 50, 99] 1.0 1.0
checking cycle [99, 50, 99]
[99, 50, 99] 2595 180
t_[60, 98, 77, 56, 74, 64, 36, 10, 45, 84, 14, 41, 38, 30, 60] 1.0 1.0
checking cycle [60, 98, 77, 56, 74, 64, 36, 10, 45, 84, 14, 41, 38, 30, 60]
[60, 98, 77, 56, 74, 64, 36, 10, 45, 84, 14, 41, 38, 30, 60] 2606 2352
t_[89, 92, 71, 97, 9, 91, 90, 79, 53, 76, 55, 89] 1.0 1.0
checking cycle [89, 92, 71, 97, 9, 91, 90, 79, 53, 76, 55, 89]
[89, 92, 71, 97, 9, 91, 90, 79, 53, 76, 55, 89] 2610 2607
t_[95, 69, 12, 42, 52, 49, 18, 95] 1.0 1.0
checking cycle [95, 69, 12, 42, 52, 49, 18, 95]
[95, 69, 12, 42, 52, 49, 18, 95] 2672 2535
